
Gurobi 10.0.1 (win64) logging started Sat Sep  9 15:28:49 2023

Set parameter LogFile to value "results-heuristic-start//log/URT_11_deadline.log"
Gurobi Optimizer version 10.0.1 build v10.0.1rc0 (win64)

CPU model: AMD Ryzen 7 3700X 8-Core Processor, instruction set [SSE2|AVX|AVX2]
Thread count: 8 physical cores, 16 logical processors, using up to 16 threads

Optimize a model with 285 rows, 296 columns and 1040 nonzeros
Model fingerprint: 0xba662234
Model has 1 quadratic constraint
Variable types: 30 continuous, 266 integer (265 binary)
Coefficient statistics:
  Matrix range     [1e+00, 1e+06]
  QMatrix range    [1e+00, 1e+00]
  QLMatrix range   [1e+00, 1e+01]
  Objective range  [1e+00, 1e+00]
  Bounds range     [1e+00, 1e+00]
  RHS range        [1e+00, 3e+06]

Warning: Completing partial solution with 251 unfixed non-continuous variables out of 266
User MIP start produced solution with objective 959 (0.00s)
Loaded user MIP start with objective 959

Presolve removed 59 rows and 172 columns
Presolve time: 0.02s
Presolved: 237 rows, 134 columns, 996 nonzeros
Variable types: 40 continuous, 94 integer (93 binary)

Root relaxation: objective 0.000000e+00, 42 iterations, 0.00 seconds (0.00 work units)

    Nodes    |    Current Node    |     Objective Bounds      |     Work
 Expl Unexpl |  Obj  Depth IntInf | Incumbent    BestBd   Gap | It/Node Time

     0     0    0.00000    0    2  959.00000    0.00000   100%     -    0s
H    0     0                     958.0000000    0.00000   100%     -    0s
     0     0    0.00000    0    3  958.00000    0.00000   100%     -    0s
H    0     0                      78.0000000    0.00000   100%     -    0s
H    0     0                      64.0000000    0.00000   100%     -    0s
     0     0    0.00000    0    5   64.00000    0.00000   100%     -    0s
     0     0    0.00000    0    8   64.00000    0.00000   100%     -    0s
     0     0    0.00000    0   11   64.00000    0.00000   100%     -    0s
     0     0    0.00000    0    3   64.00000    0.00000   100%     -    0s
     0     0    0.00000    0   10   64.00000    0.00000   100%     -    0s
     0     0    0.00000    0    9   64.00000    0.00000   100%     -    0s
     0     0    0.00000    0    9   64.00000    0.00000   100%     -    0s
H    0     2                      63.0000000    0.00000   100%     -    0s
     0     2    0.00000    0    9   63.00000    0.00000   100%     -    0s
H   33    25                      59.0000000    7.00000  88.1%  25.6    0s
H   40    25                      58.0000000    7.00000  87.9%  25.4    0s
H   73    56                      56.0000000    7.00000  87.5%  20.2    0s
H  113    83                      54.0000000    7.00000  87.0%  16.8    0s
H  122    83                      50.0000000    7.00000  86.0%  15.9    0s
H  257   132                      47.0000000    7.00000  85.1%  12.3    0s
H  391   177                      46.0000000    7.00000  84.8%  11.1    0s
H 4691   690                      45.0000000   12.00000  73.3%   4.4    0s
H 7987   884                      44.0000000   13.00000  70.5%   3.6    0s

Cutting planes:
  Learned: 14

Explored 29761 nodes (167911 simplex iterations) in 4.70 seconds (0.87 work units)
Thread count was 16 (of 16 available processors)

Solution count 10: 44 44 45 ... 59

Optimal solution found (tolerance 1.00e-04)
Best objective 4.400000000000e+01, best bound 4.400000000000e+01, gap 0.0000%
Warning: constraint name "precedence between 0,2 to 0,0 if x_[j,l,h,z,i]=1" has a space
Warning: constraint name "precedence between 0,2 to 0,0 if x_[j,l,h,z,i]=1" has a space
Warning: default constraint names used to write mps file
